/* Objective function */
min: +191,98 BTO-2 +125,51 BTO-4 +91,85 BTO-8 +84,02 BTO-10 +175,39 OPTO-2 +115,36 OPTO-4 +94,82 OPTO-8 +92,8 OPTO-10
 +753,39 BK-2 +371,08 BK-4 +198,7 BK-8 +164,57 BK-10 +682,51 PK-2 +330,47 PK-4 +178,88 PK-8 +145,01 PK-10
 +255,35 BRJ-2 +162,53 BRJ-4 +107,28 BRJ-8 +101,54 BRJ-10 +97,11 OPRJ-2 +74,32 OPRJ-4 +58,35 OPRJ-8 +58,11 OPRJ-10;

/* Constraints */
+BTO-2 +BTO-4 +BTO-8 +BTO-10 +OPTO-2 +OPTO-4 +OPTO-8 +OPTO-10 +0 BK-2 +0 BK-4 +0 BK-8 +0 BK-10 +0 PK-2
 +0 PK-4 +0 PK-8 +0 PK-10 +0 BRJ-2 +0 BRJ-4 +0 BRJ-8 +0 BRJ-10 +0 OPRJ-2 +0 OPRJ-4 +0 OPRJ-8 +0 OPRJ-10 = 1;
+0 BTO-2 +0 BTO-4 +0 BTO-8 +0 BTO-10 +0 OPTO-2 +0 OPTO-4 +0 OPTO-8 +0 OPTO-10 +BK-2 +BK-4 +BK-8 +BK-10
 +PK-2 +PK-4 +PK-8 +PK-10 +0 BRJ-2 +0 BRJ-4 +0 BRJ-8 +0 BRJ-10 +0 OPRJ-2 +0 OPRJ-4 +0 OPRJ-8 +0 OPRJ-10 = 1;
+0 BTO-2 +0 BTO-4 +0 BTO-8 +0 BTO-10 +0 OPTO-2 +0 OPTO-4 +0 OPTO-8 +0 OPTO-10 +0 BK-2 +0 BK-4 +0 BK-8
 +0 BK-10 +0 PK-2 +0 PK-4 +0 PK-8 +0 PK-10 +BRJ-2 +BRJ-4 +BRJ-8 +BRJ-10 +OPRJ-2 +OPRJ-4 +OPRJ-8 +OPRJ-10 = 1;
+0,4 BTO-2 +0,8 BTO-4 +1,6 BTO-8 +2 BTO-10 +0,4 OPTO-2 +0,8 OPTO-4 +1,6 OPTO-8 +2 OPTO-10 +0,4 BK-2 +0,8 BK-4
 +1,6 BK-8 +2 BK-10 +0,4 PK-2 +0,8 PK-4 +1,6 PK-8 +2 PK-10 +0,4 BRJ-2 +0,8 BRJ-4 +1,6 BRJ-8 +2 BRJ-10
 +0,4 OPRJ-2 +0,8 OPRJ-4 +1,6 OPRJ-8 +2 OPRJ-10 <= 4,1;
+0,4 BTO-2 +0,8 BTO-4 +1,6 BTO-8 +2 BTO-10 +0,4 OPTO-2 +0,8 OPTO-4 +1,6 OPTO-8 +2 OPTO-10 +0,4 BK-2 +0,8 BK-4
 +1,6 BK-8 +2 BK-10 +0,4 PK-2 +0,8 PK-4 +1,6 PK-8 +2 PK-10 +0,4 BRJ-2 +0,8 BRJ-4 +1,6 BRJ-8 +2 BRJ-10
 +0,4 OPRJ-2 +0,8 OPRJ-4 +1,6 OPRJ-8 +2 OPRJ-10 >= 0;

/* Variable bounds */
BTO-2 <= 1;
BTO-4 <= 1;
BTO-8 <= 1;
BTO-10 <= 1;
OPTO-2 <= 1;
OPTO-4 <= 1;
OPTO-8 <= 1;
OPTO-10 <= 1;
BK-2 <= 1;
BK-4 <= 1;
BK-8 <= 1;
BK-10 <= 1;
PK-2 <= 1;
PK-4 <= 1;
PK-8 <= 1;
PK-10 <= 1;
BRJ-2 <= 1;
BRJ-4 <= 1;
BRJ-8 <= 1;
BRJ-10 <= 1;
OPRJ-2 <= 1;
OPRJ-4 <= 1;
OPRJ-8 <= 1;
OPRJ-10 <= 1;

/* Integer definitions */
int BTO-2,BTO-4,BTO-8,BTO-10,OPTO-2,OPTO-4,OPTO-8,OPTO-10,BK-2,BK-4,BK-8,BK-10,PK-2,PK-4,PK-8,PK-10,BRJ-2,BRJ-4,BRJ-8,BRJ-10,OPRJ-2,OPRJ-4,OPRJ-8,OPRJ-10;
